12 16 9 10
1 18 7 19 4 19 14 11 2 17 10 18 18 14 12 8 
7.33 3.71 4.99 4.9 6.68 5.93 7.76 0.64 5.85 7.89 7.4 7.47 0.74 5.67 0.66 5.85 
6.01 2.93 4.7 6.44 6.09 5.68 5.18 3.67 0.91 7.13 6.71 3.14 1.77 1.7 5.23 0.28 
7.78 2.88 1.12 3.42 1.23 2.35 5.39 3.32 0.4 6.05 0.47 7.55 2.24 0.07 1.97 6.53 
7.37 2.77 5.41 3.39 1.4 0.21 1.8 7.07 7.67 5.06 7.35 3.3 2.57 3.5 5.82 6.03 
0.44 6.39 6.08 2.01 7.35 6.56 7.99 4.56 6.66 7.74 3.29 0.97 7.03 4.7 5.37 1.28 
2.64 1.89 5.45 6.51 7.59 2.03 6.94 2.84 5.18 0.54 7.64 3.46 7.82 4.89 4.19 6.06 
6.89 4.01 5 5.31 1.71 1.4 2.11 0.72 6.41 7.26 6.84 0.79 2.65 1.4 5.11 6.85 
7.17 5.34 4.29 2.75 3.3 2.55 2.99 6.44 7.37 3.42 1.58 0.85 3.79 6.19 0.99 4.03 
1.14 3.12 6.19 6.14 5.84 1.35 3.28 5.42 1.14 5.28 4.98 2.49 7.1 3.19 4.15 1.35 
4 4 4 4 4 4 4 4 4 4 4 4 4 4 4 4 
7.4 0 6.16 3.03 6.29 1.26 2.32 1.08 4.47 2.44 5.67 6.12 4.25 1.17 6.17 3.08 
2.36 7.62 6.71 6.58 6.15 7.72 0.52 2.33 7.75 6.8 7.51 5.33 4.11 6.01 6.52 2.77 
1 1 1 1 1 1 1 1 1 1 1 1 1 1 1 1 
1 1 1 1 1 1 1 1 1 1 1 1 1 1 1 1 
1 1 1 1 1 1 1 1 1 1 1 1 1 1 1 1 
1 1 1 1 1 1 1 1 1 1 1 1 1 1 1 1 
1 1 1 1 1 1 1 1 1 1 1 1 1 1 1 1 
1 1 1 1 1 1 1 1 1 1 1 1 1 1 1 1 
1 1 1 1 1 1 1 1 1 1 1 1 1 1 1 1 
1 1 1 1 1 1 1 1 1 1 1 1 1 1 1 1 
1 1 1 1 1 1 1 1 1 1 1 1 1 1 1 1 
1 1 1 1 1 1 1 1 1 1 1 1 1 1 1 1 
1 1 1 1 1 1 1 1 1 1 1 1 1 1 1 1 
1 1 1 1 1 1 1 1 1 1 1 1 1 1 1 1 
0.01 0.01 0.01 0.01 0.01 0.01 0.01 0.01 0.01 0.01 0.01 0.01 0.01 0.01 0.01 0.01 
0.02 0.02 0.02 0.02 0.02 0.02 0.02 0.02 0.02 0.02 0.02 0.02 0.02 0.02 0.02 0.02 
0.03 0.03 0.03 0.03 0.03 0.03 0.03 0.03 0.03 0.03 0.03 0.03 0.03 0.03 0.03 0.03 
0.04 0.04 0.04 0.04 0.04 0.04 0.04 0.04 0.04 0.04 0.04 0.04 0.04 0.04 0.04 0.04 
0.05 0.05 0.05 0.05 0.05 0.05 0.05 0.05 0.05 0.05 0.05 0.05 0.05 0.05 0.05 0.05 
0.06 0.06 0.06 0.06 0.06 0.06 0.06 0.06 0.06 0.06 0.06 0.06 0.06 0.06 0.06 0.06 
0.07 0.07 0.07 0.07 0.07 0.07 0.07 0.07 0.07 0.07 0.07 0.07 0.07 0.07 0.07 0.07 
0.08 0.08 0.08 0.08 0.08 0.08 0.08 0.08 0.08 0.08 0.08 0.08 0.08 0.08 0.08 0.08 
0.09 0.09 0.09 0.09 0.09 0.09 0.09 0.09 0.09 0.09 0.09 0.09 0.09 0.09 0.09 0.09 
0.1 0.1 0.1 0.1 0.1 0.1 0.1 0.1 0.1 0.1 0.1 0.1 0.1 0.1 0.1 0.1 
0.5 0.5 0.5 0.5 0.5 0.5 0.5 0.5 0.5 0.5 0.5 0.5 0.5 0.5 0.5 0.5 
1 1 1 1 1 1 1 1 1 1 1 1 1 1 1 1 
